var x1 >= 0;
var x2 >= 0;
var x3 >= 0;
maximize L: 5000*x1+4000*x2+3500*x3;
subject to
c1: 6*x1+4*x2+0.5*x3 <= 24;
c2: 1*x1+2*x2+0.75*x3 <= 6;
c3: x2-x1<=1;
c4: x2<=2;
c5: x3<=1.5;
c6: x3>=0.5;
solve;
display L,x1,x2,x3;